120
150
52
53
52
46
52
58
46
46
45
59
48
47
59
43
44
53
54
59
58
60
48
42
60
43
55
47
50
48
60
45
53
49
48
45
58
55
55
51
58
59
47
48
49
52
42
51
58
58
52
42
53
40
49
51
43
49
46
47
60
54
48
56
49
41
49
45
49
52
42
43
52
41
55
60
47
46
52
40
52
51
59
53
52
50
43
58
56
51
46
55
58
45
49
51
42
45
49
43
59
56
49
41
49
57
60
48
42
49
40
44
56
59
59
48
51
42
60
45
51
60
